c 1 addressbook
c 2 keys
c 3 encrypt
c 4 forward
c 5 sign
c 6 verify
c 7 autoresponder
c 8 decrypt
c 9 base
p cnf 9 11
9 0
2 -3 0
2 -6 0
3 -8 0
8 -3 0
6 -5 0
5 -6 0
9 -2 0
9 -7 0
9 -1 0
9 -4 0
